c --- [ banner ] -------------------------------------------------------------
c 
c CaDiCaL Radically Simplified CDCL SAT Solver
c Copyright (c) 2016-2021 A. Biere, M. Fleury, N. Froleyks
c 
c Version 1.5.2 9c38a080b32c28d805e8e6ca21849856b0cda605
c g++ (Ubuntu 7.5.0-3ubuntu1~18.04) 7.5.0 -Wall -Wextra -O3 -DNDEBUG
c Wed Feb 16 23:15:36 EST 2022 Linux fac-vanhoeve01 5.4.0-99-generic x86_64
c 
c --- [ parsing input ] ------------------------------------------------------
c 
c reading DIMACS file from '<stdin>' (use '-h' for a list of common options)
c found 'p cnf 2692 7976' header
c parsed 7976 clauses in 0.00 seconds process time
c disconnecting from '<stdin>'
c after reading 106558 bytes 0.1 MB
c 
c --- [ options ] ------------------------------------------------------------
c 
c all options are set to their default value
c 
c --- [ solving ] ------------------------------------------------------------
c 
c time measured in process time since initialization
c 
c  seconds  reductions  redundant irredundant
c         MB    restarts       trail    variables
c          level   conflicts       glue      remaining
c 
c *  0.00  4  0 0   0    0    0  0% 0 7974 2618 97%
c {  0.01  4  0 0   0    0    0  0% 0 7974 2618 97%
c -  0.03  5 58 1  49  303  289 77% 9 7902 2618 97%
c -  0.06  5 34 2  87  905  703 83% 10 7902 2618 97%
c }  0.07  5 33 2  92 1000  791 84% 10 7902 2618 97%
c [  0.07  5  0 2  92 1000  791  0% 0 7902 2618 97%
c O  0.07  5 16 2  92 1004  794 60% 9 7902 2618 97%
c -  0.11  6 23 3  92 1806 1081 92% 14 7902 2618 97%
c ]  0.17  6 22 3  93 3001 2059 92% 15 7902 2618 97%
c {  0.17  6 33 3  93 3001 2059 84% 10 7902 2618 97%
c F  0.17  6 33 3  93 3005 2062 84% 10 7902 2618 97%
c -  0.17  6 33 4  93 3006 1449 84% 10 7902 2618 97%
c s  0.19  6 32 4  99 3217 1644 85% 10 7902 2618 97%
c e  0.21  6 32 4  99 3217   64 85% 10 5687 885 33%
c s  0.22  6 32 4  99 3217   61 85% 10 5687 885 33%
c -  0.27  6 25 5 147 4506 1205 73% 10 5687 885 33%
c 2  0.29  6 24 5 178 5000 1656 74% 10 5687 885 33%
c p  0.29  6 24 5 178 5000 1660 74% 10 5687 885 33%
c #  0.34  6 23 5 223 6006 2591 78% 10 5687 885 33%
c -  0.35  6 23 6 250 6306 2201 79% 10 5687 885 33%
c 
c  seconds  reductions  redundant  irredundant
c         MB    restarts       trail     variables
c          level   conflicts       glue      remaining
c 
c }  0.37  6 23 6 260 7002 2814 80% 10 5687 885 33%
c [  0.37  6 22 6 260 7002 2814 280% 15 5687 885 33%
c -  0.43  6 26 7 261 8406 2795 200% 15 5687 885 33%
c I  0.51  6 26 7 262 10009 4268 163% 15 5687 885 33%
c -  0.55  7 27 8 263 10806 3295 153% 15 5687 885 33%
c -  0.71  7 28 9 265 13508 3523 132% 17 5687 885 33%
c s  0.74  7 27 9 265 13954 3871 130% 17 5687 885 33%
c s  0.76  7 27 9 265 13954 3869 130% 17 5687 885 33%
c ^  0.76  7 27 9 265 13954 3869 130% 17 5687 885 33%
c ]  0.82  7 27 9 265 15004 4666 125% 17 5687 885 33%
c {  0.82  7 23 9 265 15004 4666 80% 10 5687 885 33%
c 2  0.82  7 23 9 265 15004 4665 80% 10 5687 885 33%
c p  0.82  7 23 9 265 15004 4669 80% 10 5687 885 33%
c B  0.83  7 23 9 265 15010 4675 80% 10 5687 885 33%
c -  0.90  7 23 10 405 16510 4128 81% 10 5687 885 33%
c -  1.05  6 22 11 617 19813 4519 83% 10 5687 885 33%
c W  1.11  6 22 11 654 21012 5573 83% 10 5687 885 33%
c -  1.21  7 21 12 742 23415 4845 83% 10 5687 885 33%
c -  1.38  7 20 13 884 27315 5416 84% 10 5687 885 33%
c F  1.41  7 20 13 921 28013 6057 84% 10 5687 885 33%
c 
c  seconds  reductions     redundant  irredundant
c         MB     restarts         trail     variables
c          level      conflicts       glue      remaining
c 
c p  1.50  7 21 13 1007 30006 7919 84% 10 5687 885 33%
c s  1.52  7 21 13 1017 30059 7952 84% 10 5687 885 33%
c w  1.53  7 21 13 1017 30059 7951 84% 10 5687 885 33%
c s  1.54  7 21 13 1017 30059 7950 84% 10 5687 885 33%
c ^  1.54  7 21 13 1017 30059 7950 84% 10 5687 885 33%
c }  1.59  7 21 13 1096 31004 8828 84% 10 5687 885 33%
c [  1.59  7 27 13 1096 31004 8828 125% 17 5687 885 33%
c -  1.61  7 27 14 1096 31515 6106 123% 17 5687 885 33%
c B  1.84  7 28 14 1099 36014 10129 112% 17 5687 885 33%
c -  1.84  7 28 15 1099 36015 6445 112% 17 5687 885 33%
c -  2.11  8 31 16 1102 40815 6366 106% 19 5687 885 33%
c W  2.37  8 32 16 1103 45015 9902 102% 20 5687 885 33%
c -  2.43  7 32 17 1103 45917 6661 102% 20 5687 885 33%
c p  2.67  7 31 17 1104 50007 9851 100% 20 5687 885 33%
c -  2.76  8 30 18 1104 51318 6875 99% 20 5687 885 33%
c s  2.78  8 30 18 1104 51531 7018 99% 20 5687 885 33%
c s  2.80  8 30 18 1104 51531 7015 99% 20 5687 885 33%
c ^  2.80  8 30 18 1104 51531 7015 99% 20 5687 885 33%
c O  3.00  8 29 18 1105 55016 9790 98% 20 5687 885 33%
c -  3.12  8 29 19 1107 57019 7045 97% 19 5687 885 33%
c 
c  seconds  reductions      redundant  irredundant
c         MB     restarts          trail     variables
c          level      conflicts        glue      remaining
c 
c ]  3.46  8 26 19 1111 63004 10333 96% 18 5687 885 33%
c {  3.46  8 21 19 1111 63004 10333 84% 10 5687 885 33%
c -  3.46  8 21 20 1111 63019 6337 84% 10 5687 885 33%
c B  3.60  8 20 20 1265 66017 9041 83% 10 5687 885 33%
c -  3.77  8 21 21 1486 69319 8426 83% 10 5687 885 33%
c p  4.04  8 20 21 1676 75008 13579 83% 10 5687 885 33%
c -  4.09  8 20 22 1696 75921 9661 83% 10 5687 885 33%
c W  4.20  8 20 22 1791 78018 11550 83% 10 5687 885 33%
c s  4.24  8 20 22 1843 78374 11857 83% 10 5687 885 33%
c w  4.26  8 20 22 1843 78374 11852 83% 10 5687 885 33%
c s  4.28  8 20 22 1843 78374 11847 83% 10 5687 885 33%
c ^  4.28  8 20 22 1843 78374 11847 83% 10 5687 885 33%
c -  4.51  9 20 23 2037 82821 10781 83% 10 5687 885 33%
c -  4.88  9 20 24 2316 90024 11065 84% 10 5687 885 33%
c #  4.92  9 20 24 2361 91019 11963 84% 10 5687 885 33%
c -  5.22  9 19 25 2495 97525 10999 83% 10 5687 885 33%
c p  5.58  9 18 25 2677 105008 17335 82% 10 5687 885 33%
c B  5.58  9 18 25 2680 105020 17347 82% 10 5687 885 33%
c -  5.61  9 18 26 2704 105325 11455 82% 10 5687 885 33%
c s  5.88  9 18 26 2984 110582 16158 83% 10 5687 885 33%
c 
c  seconds  reductions      redundant  irredundant
c         MB     restarts          trail     variables
c          level      conflicts        glue      remaining
c 
c e  5.91  9 18 26 2984 110582 3028 83% 10 8123 567 21%
c s  5.92  9 18 26 2984 110582 3028 83% 10 8123 567 21%
c ^  5.92  9 18 26 2984 110582 3028 83% 10 8123 567 21%
c -  6.05  9 18 27 3132 113425 4516 82% 10 8123 567 21%
c W  6.37  9 18 27 3366 120022 10515 81% 10 8123 567 21%
c -  6.46 10 19 28 3448 121825 9790 81% 10 8123 567 21%
c }  6.70 10 19 28 3737 127006 14267 78% 10 8123 567 21%
c [  6.70 10 26 28 3737 127006 14267 149% 18 8123 567 21%
c -  6.88 10 26 29 3737 130525 12018 144% 18 8123 567 21%
c B  7.19 10 28 29 3742 136024 17049 136% 18 8123 567 21%
c -  7.40 10 28 30 3744 139525 13077 132% 18 8123 567 21%
c p  7.44 10 28 30 3744 140009 13542 132% 18 8123 567 21%
c -  7.95 10 27 31 3745 148825 12562 124% 18 8123 567 21%
c W  8.25 10 26 31 3746 153025 15703 120% 18 8123 567 21%
c -  8.60  9 26 32 3746 158427 11726 117% 18 8123 567 21%
c s  8.98  9 25 32 3746 164351 15560 114% 17 8123 567 21%
c w  9.00  9 25 32 3746 164351 15559 114% 17 8123 567 21%
c s  9.03  9 25 32 3746 164351 15556 114% 17 8123 567 21%
c -  9.30 10 24 33 3747 168327 11571 112% 17 8123 567 21%
c I  9.46 10 24 33 3749 171027 13326 110% 17 8123 567 21%
c 
c  seconds  reductions       redundant   irredundant
c         MB     restarts           trail      variables
c          level      conflicts          glue      remaining
c 
c -  9.99 12 27 34 3753 178527 13771 108% 18 8123 567 21%
c p 10.09 12 27 34 3753 180009 15215 107% 18 8123 567 21%
c - 10.80 12 29 35 3760 189028 14983 105% 19 8123 567 21%
c B 10.88 12 29 35 3760 190028 15872 105% 19 8123 567 21%
c - 11.70 12 30 36 3761 199828 15595 102% 20 8123 567 21%
c W 12.63 12 31 36 3768 210029 24496 100% 21 8123 567 21%
c - 12.74 12 31 37 3768 210928 16504 100% 21 8123 567 21%
c - 13.64 13 31 38 3775 222329 16030 98% 21 8123 567 21%
c p 13.86 13 31 38 3775 225009 18066 98% 21 8123 567 21%
c O 14.27 13 31 38 3776 231030 23130 97% 21 8123 567 21%
c - 14.45 13 31 39 3776 234029 15858 97% 21 8123 567 21%
c - 15.15 13 29 40 3777 246029 13441 95% 21 8123 567 21%
c B 15.54 13 29 40 3778 253032 18009 95% 20 8123 567 21%
c ] 15.66 13 29 40 3778 255006 19765 95% 20 8123 567 21%
c { 15.66 13 19 40 3778 255006 19765 78% 10 8123 567 21%
c - 15.88 13 19 41 4040 258331 15232 79% 10 8123 567 21%
c - 16.43 13 18 42 4202 270931 15997 69% 10 8123 567 21%
c p 16.66 13 17 42 4294 275010 19281 68% 10 8123 567 21%
c F 16.72 13 17 42 4365 276033 20235 69% 10 8123 567 21%
c - 17.19 13 18 43 5031 283831 19405 72% 10 8123 567 21%
c 
c  seconds  reductions       redundant  irredundant
c         MB     restarts           trail     variables
c          level      conflicts         glue      remaining
c 
c - 18.05 14 18 44 6159 297031 21766 75% 10 8123 567 21%
c B 18.24 14 18 44 6424 300034 24485 75% 10 8123 567 21%
c - 18.99 14 18 45 7452 310531 22354 76% 10 8123 567 21%
c - 19.94 14 18 46 8561 324331 22759 77% 10 8123 567 21%
c W 20.07 14 18 46 8599 325037 23401 77% 10 8123 567 21%
c p 20.42 14 18 46 9029 330013 28038 78% 10 8123 567 21%
c - 21.01 15 18 47 9659 338432 24139 79% 10 8123 567 21%
c # 21.86 15 18 47 10574 351040 35572 79% 10 8123 567 21%
c - 22.05 15 18 48 10816 352832 24639 80% 10 8123 567 21%
c - 23.11 15 18 49 11865 367534 25161 80% 10 8123 567 21%
c B 23.77 15 18 49 12400 378043 34318 79% 10 8123 567 21%
c - 24.14 16 18 50 12798 382535 25747 80% 10 8123 567 21%
c p 24.68 16 18 50 13378 390014 32725 80% 10 8123 567 21%
c - 25.30 16 18 51 13874 397839 27222 80% 10 8123 567 21%
c W 26.04 16 18 51 14397 406045 34559 80% 10 8123 567 21%
c - 26.66 16 18 52 15048 413439 28547 81% 10 8123 567 21%
c - 27.91 18 18 53 16366 429340 29493 81% 10 8123 567 21%
c F 28.32 18 18 53 16815 435046 34609 81% 10 8123 567 21%
c - 29.17 18 18 54 17530 445542 29844 81% 10 8123 567 21%
c p 29.94 18 18 54 18256 455016 38703 82% 10 8123 567 21%
c 
c  seconds  reductions        redundant  irredundant
c         MB      restarts           trail     variables
c          level       conflicts         glue      remaining
c 
c - 30.50 18 18 55 18662 462043 30839 82% 10 8123 567 21%
c B 30.72 18 18 55 18856 465047 33589 82% 10 8123 567 21%
c - 31.86 15 18 56 19974 478844 31676 81% 10 8123 567 21%
c s 31.92 15 18 56 19974 478844 31539 81% 10 8123 567 21%
c w 32.01 15 18 56 19974 478844 31515 81% 10 8123 567 21%
c - 33.35 16 18 57 20962 495944 32512 81% 10 8123 567 21%
c W 33.49 16 18 57 20966 496049 32598 81% 10 8123 567 21%
c } 34.68 16 18 57 22221 511009 45987 82% 10 8123 567 21%
c [ 34.68 16 29 57 22221 511009 45987 95% 20 8123 567 21%
c - 34.84 15 28 58 22221 513344 32464 94% 20 8123 567 21%
c p 35.62 15 27 58 22221 525018 41896 93% 19 8123 565 21%
c s 35.71 15 27 58 22221 525018 41864 93% 19 8113 565 21%
c W 36.13 19 28 58 22221 528050 44668 93% 19 8113 565 21%
c - 36.37 18 28 59 22221 531044 31524 93% 20 8113 565 21%
c - 37.95 16 29 60 22228 549044 30535 92% 20 8113 565 21%
c I 39.10 16 30 60 22235 561051 40923 91% 21 8113 565 21%
c - 39.64 20 30 61 22236 567344 31068 91% 21 8113 565 21%
c - 41.20 20 29 62 22244 585944 30860 90% 20 8113 565 21%
c s 41.92 20 28 62 22250 594211 37998 90% 20 8097 565 21%
c w 42.00 20 28 62 22250 594211 37993 90% 20 8097 565 21%
c 
c  seconds  reductions        redundant  irredundant
c         MB      restarts           trail     variables
c          level       conflicts         glue      remaining
c 
c s 42.08 20 28 62 22250 594211 37982 90% 20 8097 565 21%
c B 42.17 20 28 62 22250 595052 38760 90% 20 8097 565 21%
c p 42.60 20 29 62 22251 600018 43441 90% 20 8097 565 21%
c - 43.00 20 29 63 22251 604844 30858 90% 20 8097 565 21%
c - 44.52 20 28 64 22253 624044 29613 90% 19 8097 565 21%
c W 45.14 20 27 64 22258 630053 34400 89% 19 8097 565 21%
c - 46.33 20 27 65 22265 643544 29663 89% 19 8097 565 21%
c - 48.06 21 26 66 22273 663344 30611 89% 19 8097 565 21%
c O 48.27 21 26 66 22274 666055 32908 89% 19 8097 565 21%
c p 49.40 21 26 66 22281 680019 43003 89% 19 8097 565 21%
c - 49.73 21 25 67 22282 683446 29999 89% 19 8097 565 21%
c B 51.31 21 25 67 22283 703056 44801 89% 18 8097 565 21%
c - 51.41 21 25 68 22283 703847 31232 89% 18 8097 565 21%
c - 53.15 21 24 69 22284 724549 31540 89% 18 8097 565 21%
c W 54.76 21 24 69 22285 741057 44997 89% 18 8097 565 21%
c - 55.18 21 24 70 22285 745549 32304 89% 18 8097 565 21%
c p 56.92 21 23 70 22285 765019 46043 89% 18 8097 565 21%
c - 57.14 21 23 71 22285 766850 31114 89% 18 8097 565 21%
c I 58.16 21 23 71 22285 780058 41850 89% 18 8097 565 21%
c - 58.89 22 23 72 22285 788450 33468 89% 18 8097 565 21%
c 
c  seconds  reductions        redundant  irredundant
c         MB      restarts           trail     variables
c          level       conflicts         glue      remaining
c 
c - 60.99 22 25 73 22289 810350 35625 89% 18 8097 565 21%
c B 61.92 22 26 73 22294 820059 44252 89% 18 8097 565 21%
c - 62.94 22 26 74 22300 832550 33860 89% 18 8097 565 21%
c p 64.82 22 24 74 22310 855021 49400 89% 17 8097 565 21%
c - 64.87 22 24 75 22310 855050 30886 89% 17 8097 565 21%
c W 65.51 22 24 75 22314 861061 34921 89% 17 8097 565 21%
c - 66.91 22 23 76 22316 877850 31063 88% 17 8097 565 21%
c - 68.82 22 23 77 22323 900952 33583 88% 17 8097 565 21%
c O 69.00 22 23 77 22325 903062 35211 88% 17 8097 565 21%
c - 70.85 22 22 78 22334 924352 32833 88% 16 8097 565 21%
c B 72.76 22 21 78 22345 946064 48971 87% 16 8097 565 21%
c - 72.99 22 21 79 22346 948052 34029 87% 16 8097 565 21%
c p 73.17 22 21 79 22346 950021 35377 87% 16 8097 565 21%
c - 75.06 22 21 80 22348 972052 33125 87% 16 8097 565 21%
c W 76.98 22 20 80 22348 990065 45899 87% 16 8097 565 21%
c - 77.68 22 20 81 22348 996352 34265 87% 16 8097 565 21%
c s 77.73 22 20 81 22348 996352 34227 87% 16 8097 565 21%
c w 77.81 22 20 81 22348 996352 34222 87% 16 8097 565 21%
c - 79.96 22 19 82 22358 1020954 34050 87% 15 8097 565 21%
c ] 80.14 22 19 82 22360 1023010 35233 87% 15 8097 565 21%
c 
c  seconds  reductions         redundant  irredundant
c         MB      restarts            trail     variables
c          level        conflicts         glue      remaining
c 
c { 80.14 22 18 82 22360 1023010 35233 82% 10 8097 565 21%
c # 80.98 22 18 82 23154 1035066 46143 82% 10 8097 565 21%
c - 81.93 22 18 83 23964 1045858 39695 81% 10 8097 565 21%
c p 82.29 22 18 83 24230 1050021 43508 82% 10 8097 565 21%
c - 84.30 22 18 84 25737 1071059 43441 82% 10 8097 565 21%
c B 85.16 22 18 84 26353 1081068 52400 82% 10 8097 565 21%
c - 86.61 22 18 85 27187 1096560 44464 83% 10 8097 565 21%
c - 89.11 24 18 86 28837 1122362 46042 83% 10 8097 565 21%
c } 89.57 24 18 86 29006 1128069 51022 82% 10 8097 565 21%
c 1 89.57 24 18 86 29006 1128069 51022 82% 10 8097 565 21%
c 
c --- [ result ] -------------------------------------------------------------
c 
s SATISFIABLE
v -1 -2 -3 -4 -5 -6 -7 8 -9 10 -11 -12 -13 -14 -15 -16 -17 -18 -19 -20 -21 -22
v -23 24 -25 26 -27 28 -29 -30 31 -32 -33 -34 -35 -36 37 38 -39 -40 -41 -42
v -43 -44 -45 -46 47 -48 -49 -50 -51 -52 -53 54 55 56 -57 -58 59 -60 -61 62 63
v -64 -65 -66 -67 -68 -69 -70 -71 -72 -73 -74 -75 -76 -77 -78 -79 -80 -81 82
v -83 -84 85 86 -87 -88 -89 -90 -91 -92 -93 -94 -95 -96 -97 -98 -99 -100 -101
v -102 -103 -104 -105 -106 -107 -108 109 -110 -111 -112 -113 -114 -115 -116
v -117 -118 119 -120 121 -122 -123 -124 -125 126 -127 -128 129 -130 -131 -132
v -133 -134 -135 -136 -137 -138 -139 140 -141 -142 -143 144 -145 -146 -147 148
v -149 -150 -151 -152 -153 -154 -155 156 -157 -158 -159 -160 -161 162 -163
v -164 -165 -166 -167 -168 -169 -170 -171 -172 173 174 -175 -176 -177 -178
v -179 180 -181 182 -183 -184 -185 -186 -187 -188 -189 -190 -191 -192 193 -194
v 195 -196 -197 -198 -199 -200 -201 -202 -203 -204 -205 -206 -207 -208 -209
v -210 211 -212 -213 214 -215 216 -217 -218 -219 -220 -221 -222 223 -224 -225
v -226 -227 -228 -229 -230 231 232 -233 234 -235 -236 -237 -238 -239 240 -241
v -242 -243 -244 -245 246 -247 -248 -249 -250 251 -252 253 -254 -255 -256 -257
v -258 -259 -260 -261 -262 -263 264 265 -266 -267 268 269 -270 -271 -272 -273
v -274 -275 -276 277 -278 -279 -280 -281 282 283 -284 -285 286 287 288 289 290
v -291 -292 293 -294 -295 296 297 298 -299 300 -301 302 -303 304 -305 306 307
v -308 -309 -310 -311 -312 313 314 315 316 -317 318 319 320 321 -322 -323 -324
v 325 326 327 328 329 330 331 332 333 334 335 336 337 338 339 340 341 342 343
v 344 345 346 347 348 349 350 351 352 353 354 355 356 357 358 359 360 361 362
v 363 364 365 366 367 368 369 370 371 372 373 374 375 376 377 378 379 380 381
v 382 383 384 385 386 387 388 389 390 391 392 393 394 395 396 397 398 -399
v -400 401 402 403 404 405 406 407 408 409 410 411 412 413 414 415 416 417 418
v 419 420 421 422 423 424 425 426 427 428 429 430 431 432 433 434 435 436 437
v 438 439 440 441 442 443 444 445 446 447 448 449 450 451 452 453 454 455 456
v 457 458 459 460 461 462 463 464 465 466 467 468 469 470 471 472 -473 -474
v -475 -476 -477 -478 -479 -480 -481 -482 -483 -484 -485 486 487 488 489 490
v 491 492 493 494 495 496 497 498 499 500 501 502 503 504 505 506 507 508 509
v 510 511 512 513 514 515 516 517 518 519 520 521 522 523 524 525 526 527 528
v 529 530 531 532 533 534 535 536 537 538 539 540 541 542 543 544 545 546 -547
v -548 -549 -550 -551 -552 -553 -554 -555 -556 -557 -558 -559 -560 561 562 563
v 564 565 566 567 568 569 570 571 572 573 574 575 576 577 578 579 580 581 582
v 583 584 585 586 587 588 589 590 591 592 593 594 595 596 597 598 599 600 601
v 602 603 604 605 606 607 608 609 610 611 612 613 614 615 616 617 618 619 620
v -621 -622 -623 -624 -625 -626 -627 -628 -629 -630 -631 -632 -633 -634 -635
v -636 -637 638 639 640 641 642 643 644 645 646 647 648 649 650 651 652 653
v 654 655 656 657 658 659 660 661 662 663 664 665 666 667 668 669 670 671 672
v 673 674 675 676 677 678 679 680 681 682 683 684 685 686 687 688 689 690 691
v 692 693 694 -695 -696 -697 -698 -699 -700 -701 -702 -703 -704 -705 -706 -707
v -708 -709 -710 -711 -712 713 714 715 716 717 718 719 720 721 722 723 724 725
v 726 727 728 729 730 731 732 733 734 735 736 737 738 739 740 741 742 743 744
v 745 746 747 748 749 750 751 752 753 754 755 756 757 758 759 760 761 762 763
v 764 765 766 767 768 -769 -770 -771 -772 -773 -774 -775 -776 -777 -778 -779
v -780 -781 -782 -783 -784 -785 -786 -787 -788 -789 -790 -791 -792 -793 -794
v 795 796 797 798 799 800 801 802 803 804 805 806 807 808 809 810 811 812 813
v 814 815 816 817 818 819 820 821 822 823 824 825 826 827 828 829 830 831 832
v 833 834 835 836 837 838 839 840 841 842 -843 -844 -845 -846 -847 -848 -849
v -850 -851 -852 -853 -854 -855 -856 -857 -858 -859 -860 -861 -862 -863 -864
v -865 -866 -867 -868 -869 -870 -871 -872 -873 874 875 876 877 878 879 880 881
v 882 883 884 885 886 887 888 889 890 891 892 893 894 895 896 897 898 899 900
v 901 902 903 904 905 906 907 908 909 910 911 912 913 914 915 916 -917 -918
v -919 -920 -921 -922 -923 -924 -925 -926 -927 -928 -929 -930 -931 -932 -933
v -934 -935 -936 -937 -938 -939 -940 -941 -942 -943 -944 -945 -946 -947 -948
v 949 950 951 952 953 954 955 956 957 958 959 960 961 962 963 964 965 966 967
v 968 969 970 971 972 973 974 975 976 977 978 979 980 981 982 983 984 985 986
v 987 988 989 990 -991 -992 -993 -994 -995 -996 -997 -998 -999 -1000 -1001
v -1002 -1003 -1004 -1005 -1006 -1007 -1008 -1009 -1010 -1011 -1012 -1013
v -1014 -1015 -1016 -1017 -1018 -1019 -1020 -1021 -1022 -1023 -1024 -1025 1026
v 1027 1028 1029 1030 1031 1032 1033 1034 1035 1036 1037 1038 1039 1040 1041
v 1042 1043 1044 1045 1046 1047 1048 1049 1050 1051 1052 1053 1054 1055 1056
v 1057 1058 1059 1060 1061 1062 1063 1064 -1065 -1066 -1067 -1068 -1069 -1070
v -1071 -1072 -1073 -1074 -1075 -1076 -1077 -1078 -1079 -1080 -1081 -1082
v -1083 -1084 -1085 -1086 -1087 -1088 -1089 -1090 -1091 -1092 -1093 -1094
v -1095 -1096 -1097 -1098 -1099 -1100 1101 1102 1103 1104 1105 1106 1107 1108
v 1109 1110 1111 1112 1113 1114 1115 1116 1117 1118 1119 1120 1121 1122 1123
v 1124 1125 1126 1127 1128 1129 1130 1131 1132 1133 1134 1135 1136 1137 1138
v -1139 -1140 -1141 -1142 -1143 -1144 -1145 -1146 -1147 -1148 -1149 -1150
v -1151 -1152 -1153 -1154 -1155 -1156 -1157 -1158 -1159 -1160 -1161 -1162
v -1163 -1164 -1165 -1166 -1167 -1168 -1169 -1170 -1171 -1172 -1173 -1174
v -1175 1176 1177 1178 1179 1180 1181 1182 1183 1184 1185 1186 1187 1188 1189
v 1190 1191 1192 1193 1194 1195 1196 1197 1198 1199 1200 1201 1202 1203 1204
v 1205 1206 1207 1208 1209 1210 1211 1212 -1213 -1214 -1215 -1216 -1217 -1218
v -1219 -1220 -1221 -1222 -1223 -1224 -1225 -1226 -1227 -1228 -1229 -1230
v -1231 -1232 -1233 -1234 -1235 -1236 -1237 -1238 -1239 -1240 -1241 -1242
v -1243 -1244 -1245 -1246 -1247 -1248 -1249 -1250 1251 1252 1253 1254 1255
v 1256 1257 1258 1259 1260 1261 1262 1263 1264 1265 1266 1267 1268 1269 1270
v 1271 1272 1273 1274 1275 1276 1277 1278 1279 1280 1281 1282 1283 1284 1285
v 1286 -1287 -1288 -1289 -1290 -1291 -1292 -1293 -1294 -1295 -1296 -1297 -1298
v -1299 -1300 -1301 -1302 -1303 -1304 -1305 -1306 -1307 -1308 -1309 -1310
v -1311 -1312 -1313 -1314 -1315 -1316 -1317 -1318 -1319 -1320 -1321 -1322
v -1323 -1324 -1325 1326 1327 1328 1329 1330 1331 1332 1333 1334 1335 1336
v 1337 1338 1339 1340 1341 1342 1343 1344 1345 1346 1347 1348 1349 1350 1351
v 1352 1353 1354 1355 1356 1357 1358 1359 1360 -1361 -1362 -1363 -1364 -1365
v -1366 -1367 -1368 -1369 -1370 -1371 -1372 -1373 -1374 -1375 -1376 -1377
v -1378 -1379 -1380 -1381 -1382 -1383 -1384 -1385 -1386 -1387 -1388 -1389
v -1390 -1391 -1392 -1393 -1394 -1395 -1396 -1397 -1398 -1399 -1400 -1401
v -1402 1403 1404 1405 1406 1407 1408 1409 1410 1411 1412 1413 1414 1415 1416
v 1417 1418 1419 1420 1421 1422 1423 1424 1425 1426 1427 1428 1429 1430 1431
v 1432 1433 1434 -1435 -1436 -1437 -1438 -1439 -1440 -1441 -1442 -1443 -1444
v -1445 -1446 -1447 -1448 -1449 -1450 -1451 -1452 -1453 -1454 -1455 -1456
v -1457 -1458 -1459 -1460 -1461 -1462 -1463 -1464 -1465 -1466 -1467 -1468
v -1469 -1470 -1471 -1472 -1473 -1474 -1475 -1476 -1477 -1478 -1479 1480 1481
v 1482 1483 1484 1485 1486 1487 1488 1489 1490 1491 1492 1493 1494 1495 1496
v 1497 1498 1499 1500 1501 1502 1503 1504 1505 1506 1507 1508 -1509 -1510
v -1511 -1512 -1513 -1514 -1515 -1516 -1517 -1518 -1519 -1520 -1521 -1522
v -1523 -1524 -1525 -1526 -1527 -1528 -1529 -1530 -1531 -1532 -1533 -1534
v -1535 -1536 -1537 -1538 -1539 -1540 -1541 -1542 -1543 -1544 -1545 -1546
v -1547 -1548 -1549 -1550 -1551 -1552 -1553 -1554 1555 1556 1557 1558 1559
v 1560 1561 1562 1563 1564 1565 1566 1567 1568 1569 1570 1571 1572 1573 1574
v 1575 1576 1577 1578 1579 1580 1581 1582 -1583 -1584 -1585 -1586 -1587 -1588
v -1589 -1590 -1591 -1592 -1593 -1594 -1595 -1596 -1597 -1598 -1599 -1600
v -1601 -1602 -1603 -1604 -1605 -1606 -1607 -1608 -1609 -1610 -1611 -1612
v -1613 -1614 -1615 -1616 -1617 -1618 -1619 -1620 -1621 -1622 -1623 -1624
v -1625 -1626 -1627 -1628 -1629 1630 1631 1632 1633 1634 1635 1636 1637 1638
v 1639 1640 1641 1642 1643 1644 1645 1646 1647 1648 1649 1650 1651 1652 1653
v 1654 1655 1656 -1657 -1658 -1659 -1660 -1661 -1662 -1663 -1664 -1665 -1666
v -1667 -1668 -1669 -1670 -1671 -1672 -1673 -1674 -1675 -1676 -1677 -1678
v -1679 -1680 -1681 -1682 -1683 -1684 -1685 -1686 -1687 -1688 -1689 -1690
v -1691 -1692 -1693 -1694 -1695 -1696 -1697 -1698 -1699 -1700 -1701 -1702
v -1703 -1704 -1705 1706 1707 1708 1709 1710 1711 1712 1713 1714 1715 1716
v 1717 1718 1719 1720 1721 1722 1723 1724 1725 1726 1727 1728 1729 1730 -1731
v -1732 -1733 -1734 -1735 -1736 -1737 -1738 -1739 -1740 -1741 -1742 -1743
v -1744 -1745 -1746 -1747 -1748 -1749 -1750 -1751 -1752 -1753 -1754 -1755
v -1756 -1757 -1758 -1759 -1760 -1761 -1762 -1763 -1764 -1765 -1766 -1767
v -1768 -1769 -1770 -1771 -1772 -1773 -1774 -1775 -1776 -1777 -1778 -1779
v -1780 -1781 1782 1783 1784 1785 1786 1787 1788 1789 1790 1791 1792 1793 1794
v 1795 1796 1797 1798 1799 1800 1801 1802 1803 1804 -1805 -1806 -1807 -1808
v -1809 -1810 -1811 -1812 -1813 -1814 -1815 -1816 -1817 -1818 -1819 -1820
v -1821 -1822 -1823 -1824 -1825 -1826 -1827 -1828 -1829 -1830 -1831 -1832
v -1833 -1834 -1835 -1836 -1837 -1838 -1839 -1840 -1841 -1842 -1843 -1844
v -1845 -1846 -1847 -1848 -1849 -1850 -1851 -1852 -1853 -1854 -1855 -1856
v -1857 1858 1859 1860 1861 1862 1863 1864 1865 1866 1867 1868 1869 1870 1871
v 1872 1873 1874 1875 1876 1877 1878 -1879 -1880 -1881 -1882 -1883 -1884 -1885
v -1886 -1887 -1888 -1889 -1890 -1891 -1892 -1893 -1894 -1895 -1896 -1897
v -1898 -1899 -1900 -1901 -1902 -1903 -1904 -1905 -1906 -1907 -1908 -1909
v -1910 -1911 -1912 -1913 -1914 -1915 -1916 -1917 -1918 -1919 -1920 -1921
v -1922 -1923 -1924 -1925 -1926 -1927 -1928 -1929 -1930 -1931 -1932 -1933 1934
v 1935 1936 1937 1938 1939 1940 1941 1942 1943 1944 1945 1946 1947 1948 1949
v 1950 1951 1952 -1953 -1954 -1955 -1956 -1957 -1958 -1959 -1960 -1961 -1962
v -1963 -1964 -1965 -1966 -1967 -1968 -1969 -1970 -1971 -1972 -1973 -1974
v -1975 -1976 -1977 -1978 -1979 -1980 -1981 -1982 -1983 -1984 -1985 -1986
v -1987 -1988 -1989 -1990 -1991 -1992 -1993 -1994 -1995 -1996 -1997 -1998
v -1999 -2000 -2001 -2002 -2003 -2004 -2005 -2006 -2007 -2008 2009 2010 2011
v 2012 2013 2014 2015 2016 2017 2018 2019 2020 2021 2022 2023 2024 2025 2026
v -2027 -2028 -2029 -2030 -2031 -2032 -2033 -2034 -2035 -2036 -2037 -2038
v -2039 -2040 -2041 -2042 -2043 -2044 -2045 -2046 -2047 -2048 -2049 -2050
v -2051 -2052 -2053 -2054 -2055 -2056 -2057 -2058 -2059 -2060 -2061 -2062
v -2063 -2064 -2065 -2066 -2067 -2068 -2069 -2070 -2071 -2072 -2073 -2074
v -2075 -2076 -2077 -2078 -2079 -2080 -2081 -2082 -2083 -2084 -2085 -2086
v -2087 -2088 2089 2090 2091 2092 2093 2094 2095 2096 2097 2098 2099 2100
v -2101 -2102 -2103 -2104 -2105 -2106 -2107 -2108 -2109 -2110 -2111 -2112
v -2113 -2114 -2115 -2116 -2117 -2118 -2119 -2120 -2121 -2122 -2123 -2124
v -2125 -2126 -2127 -2128 -2129 -2130 -2131 -2132 -2133 -2134 -2135 -2136
v -2137 -2138 -2139 -2140 -2141 -2142 -2143 -2144 -2145 -2146 -2147 -2148
v -2149 -2150 -2151 -2152 -2153 -2154 -2155 -2156 -2157 -2158 -2159 -2160
v -2161 -2162 -2163 2164 2165 2166 2167 2168 2169 2170 2171 2172 2173 2174
v -2175 -2176 -2177 -2178 -2179 -2180 -2181 -2182 -2183 -2184 -2185 -2186
v -2187 -2188 -2189 -2190 -2191 -2192 -2193 -2194 -2195 -2196 -2197 -2198
v -2199 -2200 -2201 -2202 -2203 -2204 -2205 -2206 -2207 -2208 -2209 -2210
v -2211 -2212 -2213 -2214 -2215 -2216 -2217 -2218 -2219 -2220 -2221 -2222
v -2223 -2224 -2225 -2226 -2227 -2228 -2229 -2230 -2231 -2232 -2233 -2234
v -2235 -2236 -2237 -2238 2239 2240 2241 2242 2243 2244 2245 2246 2247 2248
v -2249 -2250 -2251 -2252 -2253 -2254 -2255 -2256 -2257 -2258 -2259 -2260
v -2261 -2262 -2263 -2264 -2265 -2266 -2267 -2268 -2269 -2270 -2271 -2272
v -2273 -2274 -2275 -2276 -2277 -2278 -2279 -2280 -2281 -2282 -2283 -2284
v -2285 -2286 -2287 -2288 -2289 -2290 -2291 -2292 -2293 -2294 -2295 -2296
v -2297 -2298 -2299 -2300 -2301 -2302 -2303 -2304 -2305 -2306 -2307 -2308
v -2309 -2310 -2311 -2312 -2313 2314 2315 2316 2317 2318 2319 2320 2321 2322
v -2323 -2324 -2325 -2326 -2327 -2328 -2329 -2330 -2331 -2332 -2333 -2334
v -2335 -2336 -2337 -2338 -2339 -2340 -2341 -2342 -2343 -2344 -2345 -2346
v -2347 -2348 -2349 -2350 -2351 -2352 -2353 -2354 -2355 -2356 -2357 -2358
v -2359 -2360 -2361 -2362 -2363 -2364 -2365 -2366 -2367 -2368 -2369 -2370
v -2371 -2372 -2373 -2374 -2375 -2376 -2377 -2378 -2379 -2380 -2381 -2382
v -2383 -2384 -2385 -2386 -2387 -2388 -2389 2390 2391 2392 2393 2394 2395 2396
v -2397 -2398 -2399 -2400 -2401 -2402 -2403 -2404 -2405 -2406 -2407 -2408
v -2409 -2410 -2411 -2412 -2413 -2414 -2415 -2416 -2417 -2418 -2419 -2420
v -2421 -2422 -2423 -2424 -2425 -2426 -2427 -2428 -2429 -2430 -2431 -2432
v -2433 -2434 -2435 -2436 -2437 -2438 -2439 -2440 -2441 -2442 -2443 -2444
v -2445 -2446 -2447 -2448 -2449 -2450 -2451 -2452 -2453 -2454 -2455 -2456
v -2457 -2458 -2459 -2460 -2461 -2462 -2463 -2464 2465 2466 2467 2468 2469
v 2470 -2471 -2472 -2473 -2474 -2475 -2476 -2477 -2478 -2479 -2480 -2481 -2482
v -2483 -2484 -2485 -2486 -2487 -2488 -2489 -2490 -2491 -2492 -2493 -2494
v -2495 -2496 -2497 -2498 -2499 -2500 -2501 -2502 -2503 -2504 -2505 -2506
v -2507 -2508 -2509 -2510 -2511 -2512 -2513 -2514 -2515 -2516 -2517 -2518
v -2519 -2520 -2521 -2522 -2523 -2524 -2525 -2526 -2527 -2528 -2529 -2530
v -2531 -2532 -2533 -2534 -2535 -2536 -2537 -2538 -2539 2540 2541 2542 2543
v 2544 -2545 -2546 -2547 -2548 -2549 -2550 -2551 -2552 -2553 -2554 -2555 -2556
v -2557 -2558 -2559 -2560 -2561 -2562 -2563 -2564 -2565 -2566 -2567 -2568
v -2569 -2570 -2571 -2572 -2573 -2574 -2575 -2576 -2577 -2578 -2579 -2580
v -2581 -2582 -2583 -2584 -2585 -2586 -2587 -2588 -2589 -2590 -2591 -2592
v -2593 -2594 -2595 -2596 -2597 -2598 -2599 -2600 -2601 -2602 -2603 -2604
v -2605 -2606 -2607 -2608 -2609 -2610 -2611 -2612 -2613 -2614 2615 2616 2617
v 2618 -2619 -2620 -2621 -2622 -2623 -2624 -2625 -2626 -2627 -2628 -2629 -2630
v -2631 -2632 -2633 -2634 -2635 -2636 -2637 -2638 -2639 -2640 -2641 -2642
v -2643 -2644 -2645 -2646 -2647 -2648 -2649 -2650 -2651 -2652 -2653 -2654
v -2655 -2656 -2657 -2658 -2659 -2660 -2661 -2662 -2663 -2664 -2665 -2666
v -2667 -2668 -2669 -2670 -2671 -2672 -2673 -2674 -2675 -2676 -2677 -2678
v -2679 -2680 -2681 -2682 -2683 -2684 -2685 -2686 -2687 -2688 -2689 -2690
v -2691 -2692 0
c 
c --- [ run-time profiling ] -------------------------------------------------
c 
c process time taken by individual solving procedures
c (percentage relative to process time for solving)
c 
c        88.27   98.54% search
c        54.85   61.24% stable
c        31.79   35.49% unstable
c         1.62    1.81% walk
c         1.30    1.46% simplify
c         0.47    0.52% subsume
c         0.32    0.36% vivify
c         0.20    0.22% probe
c         0.08    0.09% ternary
c         0.07    0.08% elim
c         0.00    0.01% parse
c         0.00    0.00% lucky
c   =================================
c        89.57   99.99% solve
c 
c last line shows process time for solving
c (percentage relative to total process time)
c 
c --- [ statistics ] ---------------------------------------------------------
c 
c chronological:            206232        18.28 %  of conflicts
c conflicts:               1128069     12594.28    per second
c decisions:               1787958     19961.58    per second
c eliminated:                 2051        76.19 %  of all variables
c fixed:                        76         2.82 %  of all variables
c learned:                 1108936        98.30 %  per conflict
c learned_lits:           45020695       100.00 %  learned literals
c minimized:                     0         0.00 %  learned literals
c shrunken:               15323578        34.04 %  learned literals
c minishrunken:            4314418         9.58 %  learned literals
c propagations:           87122250         0.97 M  per second
c reduced:                  862623        76.47 %  per conflict
c rephased:                     47     24001.47    interval
c restarts:                  29006        38.89    interval
c stabilizing:                   5        60.46 %  of conflicts
c subsumed:                 180554         8.01 %  of all clauses
c strengthened:               6577         0.29 %  of all clauses
c ternary:                       7         0.02 %  of resolved
c vivified:                     93         0.00 %  of all clauses
c walked:                       15     75204.60    interval
c weakened:                   8771         2.90    average size
c 
c seconds are measured in process time for solving
c 
c --- [ resources ] ----------------------------------------------------------
c 
c total process time since initialization:        89.58    seconds
c total real time since initialization:           89.60    seconds
c maximum resident set size of process:           23.95    MB
c 
c --- [ shutting down ] ------------------------------------------------------
c 
c exit 10
